min: c;

c = 3.86461469676993 * u4_t1_h1 + 3.10758095608792 * u4_t1_h2 + 2.93394802089263 * u4_t1_h3 + 3.04322451994071 * u4_t1_h4 + 3.04322451994071 * u4_t10_h4 + 4.01271408246597 * u4_t1_h5 + 4.01271408246597 * u4_t10_h5 + 3.88868052738247 * u4_t1_h6 + 3.88868052738247 * u4_t10_h6 + 3.81601827167289 * u4_t1_h7 + 3.81601827167289 * u4_t10_h7 + 4.9186506655452 * u4_t1_h8 + 4.9186506655452 * u4_t9_h8 + 4.9186506655452 * u4_t10_h8 + 5.20970733596882 * u4_t9_h9 + 5.20970733596882 * u4_t10_h9 + 5.35228946443725 * u4_t9_h10 + 5.35228946443725 * u4_t10_h10 + 4.1898527461559 * u4_t2_h11 + 4.1898527461559 * u4_t4_h11 + 4.1898527461559 * u4_t9_h11 + 4.1898527461559 * u4_t10_h11 + 6.20583434944274 * u4_t2_h12 + 6.20583434944274 * u4_t3_h12 + 6.20583434944274 * u4_t4_h12 + 6.20583434944274 * u4_t8_h12 + 6.20583434944274 * u4_t9_h12 + 6.20583434944274 * u4_t10_h12 + 4.97622224304291 * u4_t2_h13 + 4.97622224304291 * u4_t3_h13 + 4.97622224304291 * u4_t4_h13 + 4.97622224304291 * u4_t8_h13 + 4.97622224304291 * u4_t9_h13 + 5.12509898013579 * u4_t2_h14 + 5.12509898013579 * u4_t3_h14 + 5.12509898013579 * u4_t4_h14 + 5.12509898013579 * u4_t8_h14 + 5.12509898013579 * u4_t9_h14 + 6.22861500637536 * u4_t2_h15 + 6.22861500637536 * u4_t3_h15 + 6.22861500637536 * u4_t4_h15 + 6.22861500637536 * u4_t8_h15 + 6.22861500637536 * u4_t9_h15 + 6.18824080732993 * u4_t2_h16 + 6.18824080732993 * u4_t3_h16 + 6.18824080732993 * u4_t4_h16 + 6.18824080732993 * u4_t5_h16 + 6.18824080732993 * u4_t8_h16 + 6.18824080732993 * u4_t9_h16 + 6.08060729078843 * u4_t2_h17 + 6.08060729078843 * u4_t3_h17 + 6.08060729078843 * u4_t5_h17 + 6.08060729078843 * u4_t8_h17 + 6.08060729078843 * u4_t9_h17 + 6.10261250325332 * u4_t2_h18 + 6.10261250325332 * u4_t3_h18 + 6.10261250325332 * u4_t5_h18 + 6.10261250325332 * u4_t8_h18 + 6.10261250325332 * u4_t9_h18 + 5.42220152384648 * u4_t2_h19 + 5.42220152384648 * u4_t3_h19 + 5.42220152384648 * u4_t6_h19 + 5.42220152384648 * u4_t8_h19 + 5.42220152384648 * u4_t9_h19 + 5.22375785375934 * u4_t2_h20 + 5.22375785375934 * u4_t6_h20 + 5.22375785375934 * u4_t9_h20 + 4.77935738193128 * u4_t6_h21 + 6.04164456300984 * u4_t6_h22 + 6.04164456300984 * u4_t7_h22 + 5.49422554405547 * u4_t6_h23 + 5.49422554405547 * u4_t7_h23;
0 <= u4_t1_h1 <= 1;
0 <= u4_t1_h2 <= 1;
0 <= u4_t1_h3 <= 1;
0 <= u4_t1_h4 <= 1;
0 <= u4_t1_h5 <= 1;
0 <= u4_t1_h6 <= 1;
0 <= u4_t1_h7 <= 1;
0 <= u4_t1_h8 <= 1;
u4_t1_h1 + u4_t1_h2 + u4_t1_h3 + u4_t1_h4 + u4_t1_h5 + u4_t1_h6 + u4_t1_h7 + u4_t1_h8 = 1;
0 <= u4_t2_h11 <= 1;
0 <= u4_t2_h12 <= 1;
0 <= u4_t2_h13 <= 1;
0 <= u4_t2_h14 <= 1;
0 <= u4_t2_h15 <= 1;
0 <= u4_t2_h16 <= 1;
0 <= u4_t2_h17 <= 1;
0 <= u4_t2_h18 <= 1;
0 <= u4_t2_h19 <= 1;
0 <= u4_t2_h20 <= 1;
u4_t2_h11 + u4_t2_h12 + u4_t2_h13 + u4_t2_h14 + u4_t2_h15 + u4_t2_h16 + u4_t2_h17 + u4_t2_h18 + u4_t2_h19 + u4_t2_h20 = 2;
0 <= u4_t3_h12 <= 1;
0 <= u4_t3_h13 <= 1;
0 <= u4_t3_h14 <= 1;
0 <= u4_t3_h15 <= 1;
0 <= u4_t3_h16 <= 1;
0 <= u4_t3_h17 <= 1;
0 <= u4_t3_h18 <= 1;
0 <= u4_t3_h19 <= 1;
u4_t3_h12 + u4_t3_h13 + u4_t3_h14 + u4_t3_h15 + u4_t3_h16 + u4_t3_h17 + u4_t3_h18 + u4_t3_h19 = 3;
0 <= u4_t4_h11 <= 1;
0 <= u4_t4_h12 <= 1;
0 <= u4_t4_h13 <= 1;
0 <= u4_t4_h14 <= 1;
0 <= u4_t4_h15 <= 1;
0 <= u4_t4_h16 <= 1;
u4_t4_h11 + u4_t4_h12 + u4_t4_h13 + u4_t4_h14 + u4_t4_h15 + u4_t4_h16 = 3;
0 <= u4_t5_h16 <= 1;
0 <= u4_t5_h17 <= 1;
0 <= u4_t5_h18 <= 1;
u4_t5_h16 + u4_t5_h17 + u4_t5_h18 = 1;
0 <= u4_t6_h19 <= 1;
0 <= u4_t6_h20 <= 1;
0 <= u4_t6_h21 <= 1;
0 <= u4_t6_h22 <= 1;
0 <= u4_t6_h23 <= 1;
u4_t6_h19 + u4_t6_h20 + u4_t6_h21 + u4_t6_h22 + u4_t6_h23 = 3;
0 <= u4_t7_h22 <= 1;
0 <= u4_t7_h23 <= 1;
u4_t7_h22 + u4_t7_h23 = 1;
0 <= u4_t8_h12 <= 1;
0 <= u4_t8_h13 <= 1;
0 <= u4_t8_h14 <= 1;
0 <= u4_t8_h15 <= 1;
0 <= u4_t8_h16 <= 1;
0 <= u4_t8_h17 <= 1;
0 <= u4_t8_h18 <= 1;
0 <= u4_t8_h19 <= 1;
u4_t8_h12 + u4_t8_h13 + u4_t8_h14 + u4_t8_h15 + u4_t8_h16 + u4_t8_h17 + u4_t8_h18 + u4_t8_h19 = 2;
0 <= u4_t9_h8 <= 1;
0 <= u4_t9_h9 <= 1;
0 <= u4_t9_h10 <= 1;
0 <= u4_t9_h11 <= 1;
0 <= u4_t9_h12 <= 1;
0 <= u4_t9_h13 <= 1;
0 <= u4_t9_h14 <= 1;
0 <= u4_t9_h15 <= 1;
0 <= u4_t9_h16 <= 1;
0 <= u4_t9_h17 <= 1;
0 <= u4_t9_h18 <= 1;
0 <= u4_t9_h19 <= 1;
0 <= u4_t9_h20 <= 1;
u4_t9_h8 + u4_t9_h9 + u4_t9_h10 + u4_t9_h11 + u4_t9_h12 + u4_t9_h13 + u4_t9_h14 + u4_t9_h15 + u4_t9_h16 + u4_t9_h17 + u4_t9_h18 + u4_t9_h19 + u4_t9_h20 = 2;
0 <= u4_t10_h4 <= 1;
0 <= u4_t10_h5 <= 1;
0 <= u4_t10_h6 <= 1;
0 <= u4_t10_h7 <= 1;
0 <= u4_t10_h8 <= 1;
0 <= u4_t10_h9 <= 1;
0 <= u4_t10_h10 <= 1;
0 <= u4_t10_h11 <= 1;
0 <= u4_t10_h12 <= 1;
u4_t10_h4 + u4_t10_h5 + u4_t10_h6 + u4_t10_h7 + u4_t10_h8 + u4_t10_h9 + u4_t10_h10 + u4_t10_h11 + u4_t10_h12 = 2;
